13546.45,51.41,58.4
14221.08,48.97,55.63
14877.42,46.81,53.18
13138.2,53.01,60.21
12552.67,55.48,63.02
12757.11,54.59,62.01
13659.81,50.98,57.92
14416.87,48.3,54.87
12933.73,53.84,61.17
16644.36,41.84,47.53
15248.53,45.67,51.88
13632.76,51.08,58.03
13929.67,49.99,56.79
13725.76,50.74,57.64
13740.72,50.68,57.57
14637.15,47.58,54.05
14246.01,48.88,55.53
14431.98,48.25,54.82
14275.63,48.78,55.42
13323.31,52.27,59.38
